5 6 73
3 3 1 4 2 4 3 16 37 37 57 57 67 
4 2 1 2 2 3 2 3 3 18 36 36 47 47 65 65 73 
5 5 1 1 1 1 2 1 3 2 3 10 24 38 47 47 56 56 64 64 72 
5 4 1 5 2 5 3 5 4 1 4 12 33 33 46 46 57 57 66 66 72 
11 4 1 2 1 2 1 5 2 5 2 1 1 1 1 3 2 3 2 2 3 1 4 0 12 12 14 14 18 18 24 24 26 26 28 28 38 38 44 44 46 47 53 64 66 
5 5 1 3 1 3 1 4 2 4 2 0 10 10 14 14 16 23 33 33 37 
